data;
param Title := LactucaSativa;
param start := "65_0_F";
set V :=
55_1_F
54_1_R
84_0_F
28_0_R
101_0_R
3_1_F
73_0_F
75_1_R
71_1_F
98_0_R
1_1_R
71_0_F
74_0_R
65_0_F
65_0_R
70_1_F
91_1_F
75_0_F
27_0_F
91_0_F
24_1_R
80_1_R
1_1_F
73_0_R
75_0_R
28_0_F
97_0_F
54_1_F
7_0_R
5_1_R
55_0_R
84_0_R
71_0_R
54_0_F
74_0_F
23_1_R
80_1_F
28_1_F
23_0_R
49_0_F
3_0_F
70_0_F
101_0_F
35_0_F
35_0_R
85_1_F
55_0_F
94_1_R
24_0_F
97_1_R
100_0_F
5_0_R
7_0_F
56_0_F
56_0_R
23_0_F
70_0_R
3_1_R
76_0_R
24_1_F
51_0_F
91_0_R
76_1_R
97_1_F
108_1_R
80_0_F
71_1_R
42_0_F
1_0_F
103_0_F
54_0_R
98_1_F
40_0_R
108_0_F
40_0_F
108_1_F
100_0_R
75_1_F
7_1_F
33_0_F
26_0_F
76_1_F
85_0_R
85_0_F
94_1_F
55_1_R
49_0_R
23_1_F
85_1_R
15_0_R
28_1_R
94_0_F
1_0_R
3_0_R
103_0_R
70_1_R
108_0_R
7_1_R
27_0_R
98_0_F
80_0_R
15_1_R
5_0_F
76_0_F
26_0_R
15_0_F
97_0_R
24_0_R
91_1_R
5_1_F
94_0_R
98_1_R
42_0_R
33_0_R
51_0_R
15_1_F
;
param w :=
55_1_F	195
54_1_R	277
84_0_F	439
28_0_R	580
101_0_R	2062
3_1_F	816
73_0_F	5137
75_1_R	267
71_1_F	282
98_0_R	3069
1_1_R	1547
71_0_F	282
74_0_R	5980
65_0_F	21662
65_0_R	21662
70_1_F	1374
91_1_F	771
75_0_F	267
27_0_F	1439
91_0_F	771
24_1_R	1696
80_1_R	1628
1_1_F	1547
73_0_R	5137
75_0_R	267
28_0_F	580
97_0_F	326
54_1_F	277
7_0_R	479
5_1_R	452
55_0_R	195
84_0_R	439
71_0_R	282
54_0_F	277
74_0_F	5980
23_1_R	1630
80_1_F	1628
28_1_F	580
23_0_R	1630
49_0_F	4342
3_0_F	816
70_0_F	1374
101_0_F	2062
35_0_F	10213
35_0_R	10213
85_1_F	7427
55_0_F	195
94_1_R	243
24_0_F	1696
97_1_R	326
100_0_F	4472
5_0_R	452
7_0_F	479
56_0_F	4608
56_0_R	4608
23_0_F	1630
70_0_R	1374
3_1_R	816
76_0_R	445
24_1_F	1696
51_0_F	3322
91_0_R	771
76_1_R	445
97_1_F	326
108_1_R	2823
80_0_F	1628
71_1_R	282
42_0_F	3308
1_0_F	1547
103_0_F	6118
54_0_R	277
98_1_F	3069
40_0_R	20958
108_0_F	2823
40_0_F	20958
108_1_F	2823
100_0_R	4472
75_1_F	267
7_1_F	479
33_0_F	9256
26_0_F	1255
76_1_F	445
85_0_R	7427
85_0_F	7427
94_1_F	243
55_1_R	195
49_0_R	4342
23_1_F	1630
85_1_R	7427
15_0_R	786
28_1_R	580
94_0_F	243
1_0_R	1547
3_0_R	816
103_0_R	6118
70_1_R	1374
108_0_R	2823
7_1_R	479
27_0_R	1439
98_0_F	3069
80_0_R	1628
15_1_R	786
5_0_F	452
76_0_F	445
26_0_R	1255
15_0_F	786
97_0_R	326
24_0_R	1696
91_1_R	771
5_1_F	452
94_0_R	243
98_1_R	3069
42_0_R	3308
33_0_R	9256
51_0_R	3322
15_1_F	786
;
set reverse :=
55_1_F	55_1_R
54_1_R	54_1_F
84_0_F	84_0_R
28_0_R	28_0_F
101_0_R	101_0_F
3_1_F	3_1_R
73_0_F	73_0_R
75_1_R	75_1_F
71_1_F	71_1_R
98_0_R	98_0_F
1_1_R	1_1_F
71_0_F	71_0_R
74_0_R	74_0_F
65_0_F	65_0_R
65_0_R	65_0_F
70_1_F	70_1_R
91_1_F	91_1_R
75_0_F	75_0_R
27_0_F	27_0_R
91_0_F	91_0_R
24_1_R	24_1_F
80_1_R	80_1_F
1_1_F	1_1_R
73_0_R	73_0_F
75_0_R	75_0_F
28_0_F	28_0_R
97_0_F	97_0_R
54_1_F	54_1_R
7_0_R	7_0_F
5_1_R	5_1_F
55_0_R	55_0_F
84_0_R	84_0_F
71_0_R	71_0_F
54_0_F	54_0_R
74_0_F	74_0_R
23_1_R	23_1_F
80_1_F	80_1_R
28_1_F	28_1_R
23_0_R	23_0_F
49_0_F	49_0_R
3_0_F	3_0_R
70_0_F	70_0_R
101_0_F	101_0_R
35_0_F	35_0_R
35_0_R	35_0_F
85_1_F	85_1_R
55_0_F	55_0_R
94_1_R	94_1_F
24_0_F	24_0_R
97_1_R	97_1_F
100_0_F	100_0_R
5_0_R	5_0_F
7_0_F	7_0_R
56_0_F	56_0_R
56_0_R	56_0_F
23_0_F	23_0_R
70_0_R	70_0_F
3_1_R	3_1_F
76_0_R	76_0_F
24_1_F	24_1_R
51_0_F	51_0_R
91_0_R	91_0_F
76_1_R	76_1_F
97_1_F	97_1_R
108_1_R	108_1_F
80_0_F	80_0_R
71_1_R	71_1_F
42_0_F	42_0_R
1_0_F	1_0_R
103_0_F	103_0_R
54_0_R	54_0_F
98_1_F	98_1_R
40_0_R	40_0_F
108_0_F	108_0_R
40_0_F	40_0_R
108_1_F	108_1_R
100_0_R	100_0_F
75_1_F	75_1_R
7_1_F	7_1_R
33_0_F	33_0_R
26_0_F	26_0_R
76_1_F	76_1_R
85_0_R	85_0_F
85_0_F	85_0_R
94_1_F	94_1_R
55_1_R	55_1_F
49_0_R	49_0_F
23_1_F	23_1_R
85_1_R	85_1_F
15_0_R	15_0_F
28_1_R	28_1_F
94_0_F	94_0_R
1_0_R	1_0_F
3_0_R	3_0_F
103_0_R	103_0_F
70_1_R	70_1_F
108_0_R	108_0_F
7_1_R	7_1_F
27_0_R	27_0_F
98_0_F	98_0_R
80_0_R	80_0_F
15_1_R	15_1_F
5_0_F	5_0_R
76_0_F	76_0_R
26_0_R	26_0_F
15_0_F	15_0_R
97_0_R	97_0_F
24_0_R	24_0_F
91_1_R	91_1_F
5_1_F	5_1_R
94_0_R	94_0_F
98_1_R	98_1_F
42_0_R	42_0_F
33_0_R	33_0_F
51_0_R	51_0_F
15_1_F	15_1_R
;
set Edges :=
55_1_F	54_0_F	overlaps
55_1_F	54_1_F	overlaps
54_1_R	55_1_R	overlaps
54_1_R	55_0_R	overlaps
84_0_F	49_0_F	links
84_0_F	51_0_F	overlaps
28_0_R	108_0_R	overlaps
28_0_R	108_1_R	overlaps
28_0_R	1_1_R	links
28_0_R	1_0_R	links
101_0_R	27_0_F	links
101_0_R	56_0_R	overlaps
101_0_R	56_0_R	links
3_1_F	108_1_F	links
3_1_F	108_0_F	links
3_1_F	1_1_F	overlaps
3_1_F	1_0_F	overlaps
73_0_F	49_0_R	overlaps
73_0_F	49_0_R	links
73_0_F	51_0_R	links
75_1_R	76_1_F	overlaps
75_1_R	76_0_F	overlaps
71_1_F	98_1_F	overlaps
71_1_F	98_0_F	overlaps
98_0_R	15_1_R	links
98_0_R	5_0_F	links
98_0_R	7_0_R	links
98_0_R	5_1_F	links
98_0_R	15_0_R	links
98_0_R	71_0_R	overlaps
98_0_R	91_1_F	links
98_0_R	91_0_F	links
98_0_R	71_1_R	overlaps
98_0_R	7_1_R	links
98_0_R	80_1_R	links
98_0_R	80_0_R	links
1_1_R	24_0_R	links
1_1_R	24_1_R	links
1_1_R	91_1_R	links
1_1_R	3_1_R	overlaps
1_1_R	91_0_R	links
1_1_R	3_0_R	overlaps
71_0_F	98_1_F	overlaps
71_0_F	98_0_F	overlaps
74_0_R	85_0_R	overlaps
74_0_R	85_0_R	links
74_0_R	85_1_R	overlaps
74_0_R	85_1_R	links
65_0_F	100_0_F	overlaps
65_0_F	100_0_F	links
65_0_F	101_0_R	links
65_0_R	40_0_R	links
65_0_R	42_0_F	overlaps
65_0_R	42_0_F	links
70_1_F	24_1_F	links
70_1_F	24_0_F	links
70_1_F	80_1_R	overlaps
70_1_F	80_0_R	overlaps
91_1_F	24_1_F	overlaps
91_1_F	24_0_F	overlaps
91_1_F	1_1_F	links
91_1_F	1_0_F	links
75_0_F	97_0_R	overlaps
75_0_F	97_1_R	overlaps
27_0_F	76_1_F	links
27_0_F	1_0_R	links
27_0_F	1_1_R	links
27_0_F	76_0_F	links
27_0_F	28_1_R	overlaps
27_0_F	28_0_R	overlaps
91_0_F	24_1_F	overlaps
91_0_F	24_0_F	overlaps
91_0_F	1_1_F	links
91_0_F	1_0_F	links
24_1_R	70_1_R	links
24_1_R	80_0_F	links
24_1_R	80_1_F	links
24_1_R	91_1_R	overlaps
24_1_R	70_0_R	links
24_1_R	91_0_R	overlaps
80_1_R	24_1_F	links
80_1_R	15_1_R	overlaps
80_1_R	15_0_R	overlaps
80_1_R	23_0_F	links
80_1_R	24_0_F	links
80_1_R	23_1_F	links
1_1_F	28_0_F	links
1_1_F	76_0_R	overlaps
1_1_F	26_0_R	links
1_1_F	28_1_F	links
1_1_F	27_0_R	links
1_1_F	76_1_R	overlaps
73_0_R	74_0_R	overlaps
73_0_R	74_0_R	links
75_0_R	76_1_F	overlaps
75_0_R	76_0_F	overlaps
28_0_F	26_0_R	overlaps
28_0_F	27_0_R	overlaps
28_0_F	56_0_F	links
28_0_F	103_0_R	links
97_0_F	75_0_R	overlaps
97_0_F	75_1_R	overlaps
54_1_F	3_0_F	overlaps
54_1_F	3_1_F	overlaps
7_0_R	5_1_F	overlaps
7_0_R	5_0_F	overlaps
7_0_R	3_0_F	links
7_0_R	3_1_F	links
5_1_R	7_1_F	overlaps
5_1_R	7_0_F	overlaps
5_1_R	98_1_F	links
5_1_R	98_0_F	links
55_0_R	23_0_R	overlaps
55_0_R	23_1_R	overlaps
84_0_R	85_0_R	overlaps
84_0_R	85_0_R	links
84_0_R	85_1_R	overlaps
84_0_R	85_1_R	links
71_0_R	70_0_F	overlaps
71_0_R	70_1_F	overlaps
54_0_F	3_0_F	overlaps
54_0_F	3_1_F	overlaps
74_0_F	73_0_F	overlaps
74_0_F	73_0_F	links
23_1_R	24_0_R	overlaps
23_1_R	24_1_R	overlaps
23_1_R	80_0_F	links
23_1_R	80_1_F	links
23_1_R	15_0_F	links
23_1_R	15_1_F	links
80_1_F	70_1_R	overlaps
80_1_F	98_1_F	links
80_1_F	85_0_F	links
80_1_F	70_0_R	overlaps
80_1_F	85_1_F	links
80_1_F	98_0_F	links
28_1_F	26_0_R	overlaps
28_1_F	27_0_R	overlaps
28_1_F	56_0_F	links
28_1_F	103_0_R	links
23_0_R	24_0_R	overlaps
23_0_R	24_1_R	overlaps
23_0_R	80_0_F	links
23_0_R	80_1_F	links
23_0_R	15_0_F	links
23_0_R	15_1_F	links
49_0_F	73_0_R	overlaps
49_0_F	73_0_R	links
3_0_F	108_1_F	links
3_0_F	108_0_F	links
3_0_F	1_1_F	overlaps
3_0_F	1_0_F	overlaps
70_0_F	24_1_F	links
70_0_F	24_0_F	links
70_0_F	80_1_R	overlaps
70_0_F	80_0_R	overlaps
101_0_F	100_0_R	overlaps
101_0_F	100_0_R	links
101_0_F	65_0_R	links
35_0_F	33_0_F	overlaps
35_0_F	33_0_F	links
35_0_R	103_0_F	overlaps
35_0_R	103_0_F	links
85_1_F	84_0_F	overlaps
85_1_F	84_0_F	links
85_1_F	74_0_F	overlaps
85_1_F	74_0_F	links
85_1_F	49_0_F	links
85_1_F	51_0_F	links
55_0_F	54_0_F	overlaps
55_0_F	54_1_F	overlaps
94_1_R	91_1_F	overlaps
94_1_R	91_0_F	overlaps
24_0_F	23_0_F	overlaps
24_0_F	76_0_R	links
24_0_F	1_0_F	links
24_0_F	23_1_F	overlaps
24_0_F	1_1_F	links
24_0_F	76_1_R	links
97_1_R	108_1_F	overlaps
97_1_R	108_0_F	overlaps
100_0_F	101_0_R	overlaps
100_0_F	101_0_R	links
100_0_F	56_0_R	links
5_0_R	7_1_F	overlaps
5_0_R	7_0_F	overlaps
5_0_R	98_1_F	links
5_0_R	98_0_F	links
7_0_F	15_0_F	overlaps
7_0_F	98_1_F	links
7_0_F	98_0_F	links
7_0_F	15_1_F	overlaps
56_0_F	100_0_R	links
56_0_F	101_0_F	overlaps
56_0_F	101_0_F	links
56_0_R	28_1_R	links
56_0_R	28_0_R	links
56_0_R	108_1_R	links
56_0_R	108_0_R	links
56_0_R	27_0_F	overlaps
56_0_R	27_0_F	links
23_0_F	108_1_F	links
23_0_F	108_0_F	links
23_0_F	55_1_F	overlaps
23_0_F	55_0_F	overlaps
70_0_R	71_0_F	overlaps
70_0_R	85_1_F	links
70_0_R	85_0_F	links
70_0_R	71_1_F	overlaps
3_1_R	5_0_R	links
3_1_R	7_0_F	links
3_1_R	54_1_R	overlaps
3_1_R	5_1_R	links
3_1_R	7_1_F	links
3_1_R	54_0_R	overlaps
76_0_R	75_0_F	overlaps
76_0_R	26_0_R	links
76_0_R	75_1_F	overlaps
76_0_R	27_0_R	links
24_1_F	23_0_F	overlaps
24_1_F	76_0_R	links
24_1_F	1_0_F	links
24_1_F	23_1_F	overlaps
24_1_F	1_1_F	links
24_1_F	76_1_R	links
51_0_F	49_0_F	overlaps
51_0_F	49_0_F	links
51_0_F	73_0_R	links
91_0_R	94_0_F	overlaps
91_0_R	94_1_F	overlaps
91_0_R	98_1_F	links
91_0_R	98_0_F	links
76_1_R	75_0_F	overlaps
76_1_R	26_0_R	links
76_1_R	75_1_F	overlaps
76_1_R	27_0_R	links
97_1_F	75_0_R	overlaps
97_1_F	75_1_R	overlaps
108_1_R	97_1_F	overlaps
108_1_R	3_0_R	links
108_1_R	97_0_F	overlaps
108_1_R	23_1_R	links
108_1_R	23_0_R	links
108_1_R	3_1_R	links
80_0_F	70_1_R	overlaps
80_0_F	98_1_F	links
80_0_F	85_0_F	links
80_0_F	70_0_R	overlaps
80_0_F	85_1_F	links
80_0_F	98_0_F	links
71_1_R	70_0_F	overlaps
71_1_R	70_1_F	overlaps
42_0_F	40_0_R	overlaps
42_0_F	40_0_R	links
1_0_F	28_0_F	links
1_0_F	76_0_R	overlaps
1_0_F	26_0_R	links
1_0_F	28_1_F	links
1_0_F	27_0_R	links
1_0_F	76_1_R	overlaps
103_0_F	28_1_R	links
103_0_F	28_0_R	links
103_0_F	108_1_R	links
103_0_F	26_0_F	overlaps
103_0_F	26_0_F	links
103_0_F	108_0_R	links
54_0_R	55_1_R	overlaps
54_0_R	55_0_R	overlaps
98_1_F	85_1_F	overlaps
98_1_F	85_1_F	links
98_1_F	85_0_F	overlaps
98_1_F	85_0_F	links
40_0_R	33_0_R	overlaps
40_0_R	33_0_R	links
108_0_F	28_0_F	overlaps
108_0_F	103_0_R	links
108_0_F	56_0_F	links
108_0_F	28_1_F	overlaps
40_0_F	42_0_R	overlaps
40_0_F	42_0_R	links
40_0_F	65_0_F	links
108_1_F	28_0_F	overlaps
108_1_F	103_0_R	links
108_1_F	56_0_F	links
108_1_F	28_1_F	overlaps
100_0_R	65_0_R	overlaps
100_0_R	65_0_R	links
75_1_F	97_0_R	overlaps
75_1_F	97_1_R	overlaps
7_1_F	15_0_F	overlaps
7_1_F	98_1_F	links
7_1_F	98_0_F	links
7_1_F	15_1_F	overlaps
33_0_F	40_0_F	overlaps
33_0_F	40_0_F	links
26_0_F	76_1_F	links
26_0_F	1_0_R	links
26_0_F	1_1_R	links
26_0_F	76_0_F	links
26_0_F	28_1_R	overlaps
26_0_F	28_0_R	overlaps
76_1_F	1_0_R	overlaps
76_1_F	24_1_R	links
76_1_F	24_0_R	links
76_1_F	1_1_R	overlaps
85_0_R	98_1_R	overlaps
85_0_R	98_1_R	links
85_0_R	70_1_F	links
85_0_R	98_0_R	overlaps
85_0_R	98_0_R	links
85_0_R	70_0_F	links
85_0_R	80_1_R	links
85_0_R	80_0_R	links
85_0_F	84_0_F	overlaps
85_0_F	84_0_F	links
85_0_F	74_0_F	overlaps
85_0_F	74_0_F	links
85_0_F	49_0_F	links
85_0_F	51_0_F	links
94_1_F	5_1_R	overlaps
94_1_F	5_0_R	overlaps
55_1_R	23_0_R	overlaps
55_1_R	23_1_R	overlaps
49_0_R	84_0_R	links
49_0_R	85_1_R	links
49_0_R	51_0_R	overlaps
49_0_R	51_0_R	links
49_0_R	85_0_R	links
23_1_F	108_1_F	links
23_1_F	108_0_F	links
23_1_F	55_1_F	overlaps
23_1_F	55_0_F	overlaps
85_1_R	98_1_R	overlaps
85_1_R	98_1_R	links
85_1_R	70_1_F	links
85_1_R	98_0_R	overlaps
85_1_R	98_0_R	links
85_1_R	70_0_F	links
85_1_R	80_1_R	links
85_1_R	80_0_R	links
15_0_R	23_1_F	links
15_0_R	23_0_F	links
15_0_R	7_1_R	overlaps
15_0_R	7_0_R	overlaps
28_1_R	108_0_R	overlaps
28_1_R	108_1_R	overlaps
28_1_R	1_1_R	links
28_1_R	1_0_R	links
94_0_F	5_1_R	overlaps
94_0_F	5_0_R	overlaps
1_0_R	24_0_R	links
1_0_R	24_1_R	links
1_0_R	91_1_R	links
1_0_R	3_1_R	overlaps
1_0_R	91_0_R	links
1_0_R	3_0_R	overlaps
3_0_R	5_0_R	links
3_0_R	7_0_F	links
3_0_R	54_1_R	overlaps
3_0_R	5_1_R	links
3_0_R	7_1_F	links
3_0_R	54_0_R	overlaps
103_0_R	35_0_F	overlaps
103_0_R	35_0_F	links
70_1_R	71_0_F	overlaps
70_1_R	85_1_F	links
70_1_R	85_0_F	links
70_1_R	71_1_F	overlaps
108_0_R	97_1_F	overlaps
108_0_R	3_0_R	links
108_0_R	97_0_F	overlaps
108_0_R	23_1_R	links
108_0_R	23_0_R	links
108_0_R	3_1_R	links
7_1_R	5_1_F	overlaps
7_1_R	5_0_F	overlaps
7_1_R	3_0_F	links
7_1_R	3_1_F	links
27_0_R	101_0_F	links
27_0_R	56_0_F	overlaps
27_0_R	56_0_F	links
98_0_F	85_1_F	overlaps
98_0_F	85_1_F	links
98_0_F	85_0_F	overlaps
98_0_F	85_0_F	links
80_0_R	24_1_F	links
80_0_R	15_1_R	overlaps
80_0_R	15_0_R	overlaps
80_0_R	23_0_F	links
80_0_R	24_0_F	links
80_0_R	23_1_F	links
15_1_R	23_1_F	links
15_1_R	23_0_F	links
15_1_R	7_1_R	overlaps
15_1_R	7_0_R	overlaps
5_0_F	94_1_R	overlaps
5_0_F	94_0_R	overlaps
5_0_F	3_0_F	links
5_0_F	3_1_F	links
76_0_F	1_0_R	overlaps
76_0_F	24_1_R	links
76_0_F	24_0_R	links
76_0_F	1_1_R	overlaps
26_0_R	103_0_R	overlaps
26_0_R	103_0_R	links
15_0_F	98_1_F	links
15_0_F	80_0_F	overlaps
15_0_F	98_0_F	links
15_0_F	80_1_F	overlaps
97_0_R	108_1_F	overlaps
97_0_R	108_0_F	overlaps
24_0_R	70_1_R	links
24_0_R	80_0_F	links
24_0_R	80_1_F	links
24_0_R	91_1_R	overlaps
24_0_R	70_0_R	links
24_0_R	91_0_R	overlaps
91_1_R	94_0_F	overlaps
91_1_R	94_1_F	overlaps
91_1_R	98_1_F	links
91_1_R	98_0_F	links
5_1_F	94_1_R	overlaps
5_1_F	94_0_R	overlaps
5_1_F	3_0_F	links
5_1_F	3_1_F	links
94_0_R	91_1_F	overlaps
94_0_R	91_0_F	overlaps
98_1_R	15_1_R	links
98_1_R	5_0_F	links
98_1_R	7_0_R	links
98_1_R	5_1_F	links
98_1_R	15_0_R	links
98_1_R	71_0_R	overlaps
98_1_R	91_1_F	links
98_1_R	91_0_F	links
98_1_R	71_1_R	overlaps
98_1_R	7_1_R	links
98_1_R	80_1_R	links
98_1_R	80_0_R	links
42_0_R	65_0_F	overlaps
42_0_R	65_0_F	links
33_0_R	35_0_R	overlaps
33_0_R	35_0_R	links
51_0_R	84_0_R	overlaps
51_0_R	85_1_R	links
51_0_R	85_0_R	links
15_1_F	98_1_F	links
15_1_F	80_0_F	overlaps
15_1_F	98_0_F	links
15_1_F	80_1_F	overlaps
;
param l :=
55_1_F	54_0_F	overlaps	91
55_1_F	54_1_F	overlaps	91
54_1_R	55_1_R	overlaps	173
54_1_R	55_0_R	overlaps	173
84_0_F	49_0_F	links	3621
84_0_F	51_0_F	overlaps	335
28_0_R	108_0_R	overlaps	476
28_0_R	108_1_R	overlaps	476
28_0_R	1_1_R	links	4038
28_0_R	1_0_R	links	4038
101_0_R	27_0_F	links	6486
101_0_R	56_0_R	overlaps	1958
101_0_R	56_0_R	links	2083
3_1_F	108_1_F	links	3013
3_1_F	108_0_F	links	3013
3_1_F	1_1_F	overlaps	712
3_1_F	1_0_F	overlaps	712
73_0_F	49_0_R	overlaps	5033
73_0_F	49_0_R	links	5173
73_0_F	51_0_R	links	9392
75_1_R	76_1_F	overlaps	163
75_1_R	76_0_F	overlaps	163
71_1_F	98_1_F	overlaps	178
71_1_F	98_0_F	overlaps	178
98_0_R	15_1_R	links	6064
98_0_R	5_0_F	links	7115
98_0_R	7_0_R	links	6683
98_0_R	5_1_F	links	7115
98_0_R	15_0_R	links	6064
98_0_R	71_0_R	overlaps	2965
98_0_R	91_1_F	links	7507
98_0_R	91_0_F	links	7507
98_0_R	71_1_R	overlaps	2965
98_0_R	7_1_R	links	6683
98_0_R	80_1_R	links	4545
98_0_R	80_0_R	links	4545
1_1_R	24_0_R	links	4050
1_1_R	24_1_R	links	4050
1_1_R	91_1_R	links	5664
1_1_R	3_1_R	overlaps	1443
1_1_R	91_0_R	links	5664
1_1_R	3_0_R	overlaps	1443
71_0_F	98_1_F	overlaps	178
71_0_F	98_0_F	overlaps	178
74_0_R	85_0_R	overlaps	5876
74_0_R	85_0_R	links	6012
74_0_R	85_1_R	overlaps	5876
74_0_R	85_1_R	links	6012
65_0_F	100_0_F	overlaps	21558
65_0_F	100_0_F	links	21711
65_0_F	101_0_R	links	26006
65_0_R	40_0_R	links	24861
65_0_R	42_0_F	overlaps	21558
65_0_R	42_0_F	links	21708
70_1_F	24_1_F	links	5126
70_1_F	24_0_F	links	5126
70_1_F	80_1_R	overlaps	1270
70_1_F	80_0_R	overlaps	1270
91_1_F	24_1_F	overlaps	667
91_1_F	24_0_F	overlaps	667
91_1_F	1_1_F	links	4888
91_1_F	1_0_F	links	4888
75_0_F	97_0_R	overlaps	163
75_0_F	97_1_R	overlaps	163
27_0_F	76_1_F	links	4995
27_0_F	1_0_R	links	5381
27_0_F	1_1_R	links	5381
27_0_F	76_0_F	links	4995
27_0_F	28_1_R	overlaps	1335
27_0_F	28_0_R	overlaps	1335
91_0_F	24_1_F	overlaps	667
91_0_F	24_0_F	overlaps	667
91_0_F	1_1_F	links	4888
91_0_F	1_0_F	links	4888
24_1_R	70_1_R	links	5448
24_1_R	80_0_F	links	3931
24_1_R	80_1_F	links	3931
24_1_R	91_1_R	overlaps	1592
24_1_R	70_0_R	links	5448
24_1_R	91_0_R	overlaps	1592
80_1_R	24_1_F	links	3863
80_1_R	15_1_R	overlaps	1524
80_1_R	15_0_R	overlaps	1524
80_1_R	23_0_F	links	5485
80_1_R	24_0_F	links	3863
80_1_R	23_1_F	links	5485
1_1_F	28_0_F	links	5005
1_1_F	76_0_R	overlaps	1443
1_1_F	26_0_R	links	5484
1_1_F	28_1_F	links	5005
1_1_F	27_0_R	links	5489
1_1_F	76_1_R	overlaps	1443
73_0_R	74_0_R	overlaps	5033
73_0_R	74_0_R	links	5211
75_0_R	76_1_F	overlaps	163
75_0_R	76_0_F	overlaps	163
28_0_F	26_0_R	overlaps	476
28_0_F	27_0_R	overlaps	476
28_0_F	56_0_F	links	1919
28_0_F	103_0_R	links	1756
97_0_F	75_0_R	overlaps	222
97_0_F	75_1_R	overlaps	222
54_1_F	3_0_F	overlaps	173
54_1_F	3_1_F	overlaps	173
7_0_R	5_1_F	overlaps	375
7_0_R	5_0_F	overlaps	375
7_0_R	3_0_F	links	4926
7_0_R	3_1_F	links	4926
5_1_R	7_1_F	overlaps	348
5_1_R	7_0_F	overlaps	348
5_1_R	98_1_F	links	4498
5_1_R	98_0_F	links	4498
55_0_R	23_0_R	overlaps	91
55_0_R	23_1_R	overlaps	91
84_0_R	85_0_R	overlaps	335
84_0_R	85_0_R	links	439
84_0_R	85_1_R	overlaps	335
84_0_R	85_1_R	links	439
71_0_R	70_0_F	overlaps	178
71_0_R	70_1_F	overlaps	178
54_0_F	3_0_F	overlaps	173
54_0_F	3_1_F	overlaps	173
74_0_F	73_0_F	overlaps	5876
74_0_F	73_0_F	links	6054
23_1_R	24_0_R	overlaps	1526
23_1_R	24_1_R	overlaps	1526
23_1_R	80_0_F	links	5460
23_1_R	80_1_F	links	5460
23_1_R	15_0_F	links	4808
23_1_R	15_1_F	links	4808
80_1_F	70_1_R	overlaps	1524
80_1_F	98_1_F	links	3088
80_1_F	85_0_F	links	6023
80_1_F	70_0_R	overlaps	1524
80_1_F	85_1_F	links	6023
80_1_F	98_0_F	links	3088
28_1_F	26_0_R	overlaps	476
28_1_F	27_0_R	overlaps	476
28_1_F	56_0_F	links	1919
28_1_F	103_0_R	links	1756
23_0_R	24_0_R	overlaps	1526
23_0_R	24_1_R	overlaps	1526
23_0_R	80_0_F	links	5460
23_0_R	80_1_F	links	5460
23_0_R	15_0_F	links	4808
23_0_R	15_1_F	links	4808
49_0_F	73_0_R	overlaps	4238
49_0_F	73_0_R	links	4401
3_0_F	108_1_F	links	3013
3_0_F	108_0_F	links	3013
3_0_F	1_1_F	overlaps	712
3_0_F	1_0_F	overlaps	712
70_0_F	24_1_F	links	5126
70_0_F	24_0_F	links	5126
70_0_F	80_1_R	overlaps	1270
70_0_F	80_0_R	overlaps	1270
101_0_F	100_0_R	overlaps	1958
101_0_F	100_0_R	links	2105
101_0_F	65_0_R	links	6406
35_0_F	33_0_F	overlaps	10109
35_0_F	33_0_F	links	10258
35_0_R	103_0_F	overlaps	10109
35_0_R	103_0_F	links	10283
85_1_F	84_0_F	overlaps	7323
85_1_F	84_0_F	links	7427
85_1_F	74_0_F	overlaps	7323
85_1_F	74_0_F	links	7459
85_1_F	49_0_F	links	10990
85_1_F	51_0_F	links	7815
55_0_F	54_0_F	overlaps	91
55_0_F	54_1_F	overlaps	91
94_1_R	91_1_F	overlaps	139
94_1_R	91_0_F	overlaps	139
24_0_F	23_0_F	overlaps	1592
24_0_F	76_0_R	links	5665
24_0_F	1_0_F	links	4254
24_0_F	23_1_F	overlaps	1592
24_0_F	1_1_F	links	4254
24_0_F	76_1_R	links	5665
97_1_R	108_1_F	overlaps	222
97_1_R	108_0_F	overlaps	222
100_0_F	101_0_R	overlaps	4368
100_0_F	101_0_R	links	4515
100_0_F	56_0_R	links	6457
5_0_R	7_1_F	overlaps	348
5_0_R	7_0_F	overlaps	348
5_0_R	98_1_F	links	4498
5_0_R	98_0_F	links	4498
7_0_F	15_0_F	overlaps	375
7_0_F	98_1_F	links	4106
7_0_F	98_0_F	links	4106
7_0_F	15_1_F	overlaps	375
56_0_F	100_0_R	links	6593
56_0_F	101_0_F	overlaps	4504
56_0_F	101_0_F	links	4629
56_0_R	28_1_R	links	5947
56_0_R	28_0_R	links	5947
56_0_R	108_1_R	links	6466
56_0_R	108_0_R	links	6466
56_0_R	27_0_F	overlaps	4504
56_0_R	27_0_F	links	4667
23_0_F	108_1_F	links	4795
23_0_F	108_0_F	links	4795
23_0_F	55_1_F	overlaps	1526
23_0_F	55_0_F	overlaps	1526
70_0_R	71_0_F	overlaps	1270
70_0_R	85_1_F	links	4554
70_0_R	85_0_F	links	4554
70_0_R	71_1_F	overlaps	1270
3_1_R	5_0_R	links	5019
3_1_R	7_0_F	links	5263
3_1_R	54_1_R	overlaps	712
3_1_R	5_1_R	links	5019
3_1_R	7_1_F	links	5263
3_1_R	54_0_R	overlaps	712
76_0_R	75_0_F	overlaps	341
76_0_R	26_0_R	links	3973
76_0_R	75_1_F	overlaps	341
76_0_R	27_0_R	links	4026
24_1_F	23_0_F	overlaps	1592
24_1_F	76_0_R	links	5665
24_1_F	1_0_F	links	4254
24_1_F	23_1_F	overlaps	1592
24_1_F	1_1_F	links	4254
24_1_F	76_1_R	links	5665
51_0_F	49_0_F	overlaps	3218
51_0_F	49_0_F	links	3360
51_0_F	73_0_R	links	7541
91_0_R	94_0_F	overlaps	667
91_0_R	94_1_F	overlaps	667
91_0_R	98_1_F	links	5209
91_0_R	98_0_F	links	5209
76_1_R	75_0_F	overlaps	341
76_1_R	26_0_R	links	3973
76_1_R	75_1_F	overlaps	341
76_1_R	27_0_R	links	4026
97_1_F	75_0_R	overlaps	222
97_1_F	75_1_R	overlaps	222
108_1_R	97_1_F	overlaps	2719
108_1_R	3_0_R	links	5020
108_1_R	97_0_F	overlaps	2719
108_1_R	23_1_R	links	5988
108_1_R	23_0_R	links	5988
108_1_R	3_1_R	links	5020
80_0_F	70_1_R	overlaps	1524
80_0_F	98_1_F	links	3088
80_0_F	85_0_F	links	6023
80_0_F	70_0_R	overlaps	1524
80_0_F	85_1_F	links	6023
80_0_F	98_0_F	links	3088
71_1_R	70_0_F	overlaps	178
71_1_R	70_1_F	overlaps	178
42_0_F	40_0_R	overlaps	3204
42_0_F	40_0_R	links	3344
1_0_F	28_0_F	links	5005
1_0_F	76_0_R	overlaps	1443
1_0_F	26_0_R	links	5484
1_0_F	28_1_F	links	5005
1_0_F	27_0_R	links	5489
1_0_F	76_1_R	overlaps	1443
103_0_F	28_1_R	links	7294
103_0_F	28_0_R	links	7294
103_0_F	108_1_R	links	7843
103_0_F	26_0_F	overlaps	6014
103_0_F	26_0_F	links	6147
103_0_F	108_0_R	links	7843
54_0_R	55_1_R	overlaps	173
54_0_R	55_0_R	overlaps	173
98_1_F	85_1_F	overlaps	2965
98_1_F	85_1_F	links	3125
98_1_F	85_0_F	overlaps	2965
98_1_F	85_0_F	links	3125
40_0_R	33_0_R	overlaps	20854
40_0_R	33_0_R	links	21024
108_0_F	28_0_F	overlaps	2719
108_0_F	103_0_R	links	4518
108_0_F	56_0_F	links	4773
108_0_F	28_1_F	overlaps	2719
40_0_F	42_0_R	overlaps	20854
40_0_F	42_0_R	links	20994
40_0_F	65_0_F	links	24157
108_1_F	28_0_F	overlaps	2719
108_1_F	103_0_R	links	4518
108_1_F	56_0_F	links	4773
108_1_F	28_1_F	overlaps	2719
100_0_R	65_0_R	overlaps	4368
100_0_R	65_0_R	links	4579
75_1_F	97_0_R	overlaps	163
75_1_F	97_1_R	overlaps	163
7_1_F	15_0_F	overlaps	375
7_1_F	98_1_F	links	4106
7_1_F	98_0_F	links	4106
7_1_F	15_1_F	overlaps	375
33_0_F	40_0_F	overlaps	9152
33_0_F	40_0_F	links	9322
26_0_F	76_1_F	links	4783
26_0_F	1_0_R	links	5192
26_0_F	1_1_R	links	5192
26_0_F	76_0_F	links	4783
26_0_F	28_1_R	overlaps	1151
26_0_F	28_0_R	overlaps	1151
76_1_F	1_0_R	overlaps	341
76_1_F	24_1_R	links	4442
76_1_F	24_0_R	links	4442
76_1_F	1_1_R	overlaps	341
85_0_R	98_1_R	overlaps	7323
85_0_R	98_1_R	links	7483
85_0_R	70_1_F	links	10607
85_0_R	98_0_R	overlaps	7323
85_0_R	98_0_R	links	7483
85_0_R	70_0_F	links	10607
85_0_R	80_1_R	links	11824
85_0_R	80_0_R	links	11824
85_0_F	84_0_F	overlaps	7323
85_0_F	84_0_F	links	7427
85_0_F	74_0_F	overlaps	7323
85_0_F	74_0_F	links	7459
85_0_F	49_0_F	links	10990
85_0_F	51_0_F	links	7815
94_1_F	5_1_R	overlaps	139
94_1_F	5_0_R	overlaps	139
55_1_R	23_0_R	overlaps	91
55_1_R	23_1_R	overlaps	91
49_0_R	84_0_R	links	7532
49_0_R	85_1_R	links	7899
49_0_R	51_0_R	overlaps	4238
49_0_R	51_0_R	links	4380
49_0_R	85_0_R	links	7899
23_1_F	108_1_F	links	4795
23_1_F	108_0_F	links	4795
23_1_F	55_1_F	overlaps	1526
23_1_F	55_0_F	overlaps	1526
85_1_R	98_1_R	overlaps	7323
85_1_R	98_1_R	links	7483
85_1_R	70_1_F	links	10607
85_1_R	98_0_R	overlaps	7323
85_1_R	98_0_R	links	7483
85_1_R	70_0_F	links	10607
85_1_R	80_1_R	links	11824
85_1_R	80_0_R	links	11824
15_0_R	23_1_F	links	3929
15_0_R	23_0_F	links	3929
15_0_R	7_1_R	overlaps	682
15_0_R	7_0_R	overlaps	682
28_1_R	108_0_R	overlaps	476
28_1_R	108_1_R	overlaps	476
28_1_R	1_1_R	links	4038
28_1_R	1_0_R	links	4038
94_0_F	5_1_R	overlaps	139
94_0_F	5_0_R	overlaps	139
1_0_R	24_0_R	links	4050
1_0_R	24_1_R	links	4050
1_0_R	91_1_R	links	5664
1_0_R	3_1_R	overlaps	1443
1_0_R	91_0_R	links	5664
1_0_R	3_0_R	overlaps	1443
3_0_R	5_0_R	links	5019
3_0_R	7_0_F	links	5263
3_0_R	54_1_R	overlaps	712
3_0_R	5_1_R	links	5019
3_0_R	7_1_F	links	5263
3_0_R	54_0_R	overlaps	712
103_0_R	35_0_F	overlaps	6014
103_0_R	35_0_F	links	6156
70_1_R	71_0_F	overlaps	1270
70_1_R	85_1_F	links	4554
70_1_R	85_0_F	links	4554
70_1_R	71_1_F	overlaps	1270
108_0_R	97_1_F	overlaps	2719
108_0_R	3_0_R	links	5020
108_0_R	97_0_F	overlaps	2719
108_0_R	23_1_R	links	5988
108_0_R	23_0_R	links	5988
108_0_R	3_1_R	links	5020
7_1_R	5_1_F	overlaps	375
7_1_R	5_0_F	overlaps	375
7_1_R	3_0_F	links	4926
7_1_R	3_1_F	links	4926
27_0_R	101_0_F	links	5876
27_0_R	56_0_F	overlaps	1335
27_0_R	56_0_F	links	1462
98_0_F	85_1_F	overlaps	2965
98_0_F	85_1_F	links	3125
98_0_F	85_0_F	overlaps	2965
98_0_F	85_0_F	links	3125
80_0_R	24_1_F	links	3863
80_0_R	15_1_R	overlaps	1524
80_0_R	15_0_R	overlaps	1524
80_0_R	23_0_F	links	5485
80_0_R	24_0_F	links	3863
80_0_R	23_1_F	links	5485
15_1_R	23_1_F	links	3929
15_1_R	23_0_F	links	3929
15_1_R	7_1_R	overlaps	682
15_1_R	7_0_R	overlaps	682
5_0_F	94_1_R	overlaps	348
5_0_F	94_0_R	overlaps	348
5_0_F	3_0_F	links	4655
5_0_F	3_1_F	links	4655
76_0_F	1_0_R	overlaps	341
76_0_F	24_1_R	links	4442
76_0_F	24_0_R	links	4442
76_0_F	1_1_R	overlaps	341
26_0_R	103_0_R	overlaps	1151
26_0_R	103_0_R	links	1271
15_0_F	98_1_F	links	3781
15_0_F	80_0_F	overlaps	682
15_0_F	98_0_F	links	3781
15_0_F	80_1_F	overlaps	682
97_0_R	108_1_F	overlaps	222
97_0_R	108_0_F	overlaps	222
24_0_R	70_1_R	links	5448
24_0_R	80_0_F	links	3931
24_0_R	80_1_F	links	3931
24_0_R	91_1_R	overlaps	1592
24_0_R	70_0_R	links	5448
24_0_R	91_0_R	overlaps	1592
91_1_R	94_0_F	overlaps	667
91_1_R	94_1_F	overlaps	667
91_1_R	98_1_F	links	5209
91_1_R	98_0_F	links	5209
5_1_F	94_1_R	overlaps	348
5_1_F	94_0_R	overlaps	348
5_1_F	3_0_F	links	4655
5_1_F	3_1_F	links	4655
94_0_R	91_1_F	overlaps	139
94_0_R	91_0_F	overlaps	139
98_1_R	15_1_R	links	6064
98_1_R	5_0_F	links	7115
98_1_R	7_0_R	links	6683
98_1_R	5_1_F	links	7115
98_1_R	15_0_R	links	6064
98_1_R	71_0_R	overlaps	2965
98_1_R	91_1_F	links	7507
98_1_R	91_0_F	links	7507
98_1_R	71_1_R	overlaps	2965
98_1_R	7_1_R	links	6683
98_1_R	80_1_R	links	4545
98_1_R	80_0_R	links	4545
42_0_R	65_0_F	overlaps	3204
42_0_R	65_0_F	links	3353
33_0_R	35_0_R	overlaps	9152
33_0_R	35_0_R	links	9301
51_0_R	84_0_R	overlaps	3218
51_0_R	85_1_R	links	3694
51_0_R	85_0_R	links	3694
15_1_F	98_1_F	links	3781
15_1_F	80_0_F	overlaps	682
15_1_F	98_0_F	links	3781
15_1_F	80_1_F	overlaps	682
;
